(set-option :produce-models true); benchmark generated from python API
(set-info :status unknown)
(declare-fun l_1_0_5 () Real)
(declare-fun l_1_0_4 () Real)
(declare-fun l_1_0_1 () Real)
(declare-fun l_1_0_3 () Real)
(declare-fun l_1_0_2 () Real)
(declare-fun l_1_0_6 () Real)
(declare-fun l_1_1_7 () Real)
(declare-fun l_1_1_6 () Real)
(declare-fun l_1_1_1 () Real)
(declare-fun l_1_1_5 () Real)
(declare-fun l_1_1_4 () Real)
(declare-fun l_1_1_3 () Real)
(declare-fun l_1_1_2 () Real)
(declare-fun l_1_1_8 () Real)
(declare-fun l_1_2_9 () Real)
(declare-fun l_1_2_8 () Real)
(declare-fun l_1_2_1 () Real)
(declare-fun l_1_2_7 () Real)
(declare-fun l_1_2_6 () Real)
(declare-fun l_1_2_5 () Real)
(declare-fun l_1_2_4 () Real)
(declare-fun l_1_2_3 () Real)
(declare-fun l_1_2_2 () Real)
(declare-fun l_1_2_10 () Real)
(declare-fun l_1_3_9 () Real)
(declare-fun l_1_3_33 () Real)
(declare-fun l_1_3_32 () Real)
(declare-fun l_1_3_30 () Real)
(declare-fun l_1_3_24 () Real)
(declare-fun l_1_3_22 () Real)
(declare-fun l_1_3_18 () Real)
(declare-fun l_1_3_14 () Real)
(declare-fun l_1_3_13 () Real)
(declare-fun l_1_3_42 () Real)
(declare-fun l_1_3_41 () Real)
(declare-fun l_1_3_40 () Real)
(declare-fun l_1_3_39 () Real)
(declare-fun l_1_3_29 () Real)
(declare-fun l_1_3_17 () Real)
(declare-fun l_1_3_16 () Real)
(declare-fun l_1_3_1 () Real)
(declare-fun l_1_3_6 () Real)
(declare-fun l_1_3_5 () Real)
(declare-fun l_1_3_35 () Real)
(declare-fun l_1_3_34 () Real)
(declare-fun l_1_3_28 () Real)
(declare-fun l_1_3_25 () Real)
(declare-fun l_1_3_21 () Real)
(declare-fun l_1_3_2 () Real)
(declare-fun l_1_3_19 () Real)
(declare-fun l_1_3_12 () Real)
(declare-fun l_1_3_7 () Real)
(declare-fun l_1_3_31 () Real)
(declare-fun l_1_3_3 () Real)
(declare-fun l_1_3_27 () Real)
(declare-fun l_1_3_26 () Real)
(declare-fun l_1_3_20 () Real)
(declare-fun l_1_3_38 () Real)
(declare-fun l_1_3_37 () Real)
(declare-fun l_1_3_36 () Real)
(declare-fun l_1_3_8 () Real)
(declare-fun l_1_3_4 () Real)
(declare-fun l_1_3_10 () Real)
(declare-fun l_1_3_23 () Real)
(declare-fun l_1_3_15 () Real)
(declare-fun l_1_3_11 () Real)
(declare-fun l_1_4_8 () Real)
(declare-fun l_1_4_7 () Real)
(declare-fun l_1_4_4 () Real)
(declare-fun l_1_4_3 () Real)
(declare-fun l_1_4_29 () Real)
(declare-fun l_1_4_28 () Real)
(declare-fun l_1_4_26 () Real)
(declare-fun l_1_4_21 () Real)
(declare-fun l_1_4_14 () Real)
(declare-fun l_1_4_13 () Real)
(declare-fun _a_5_ () Real)
(declare-fun _a_4_ () Real)
(declare-fun _a_2_ () Real)
(declare-fun l_1_4_6 () Real)
(declare-fun l_1_4_38 () Real)
(declare-fun l_1_4_37 () Real)
(declare-fun l_1_4_36 () Real)
(declare-fun l_1_4_18 () Real)
(declare-fun l_1_4_12 () Real)
(declare-fun l_1_4_1 () Real)
(declare-fun _a_1_ () Real)
(declare-fun l_1_4_5 () Real)
(declare-fun l_1_4_33 () Real)
(declare-fun l_1_4_27 () Real)
(declare-fun l_1_4_24 () Real)
(declare-fun l_1_4_23 () Real)
(declare-fun l_1_4_17 () Real)
(declare-fun l_1_4_10 () Real)
(declare-fun _a_3_ () Real)
(declare-fun l_1_4_9 () Real)
(declare-fun l_1_4_32 () Real)
(declare-fun l_1_4_20 () Real)
(declare-fun l_1_4_2 () Real)
(declare-fun _a_0_ () Real)
(declare-fun l_1_4_39 () Real)
(declare-fun l_1_4_35 () Real)
(declare-fun l_1_4_34 () Real)
(declare-fun l_1_4_31 () Real)
(declare-fun l_1_4_30 () Real)
(declare-fun l_1_4_16 () Real)
(declare-fun l_1_4_11 () Real)
(declare-fun l_1_4_40 () Real)
(declare-fun l_1_4_41 () Real)
(declare-fun l_1_4_25 () Real)
(declare-fun l_1_4_22 () Real)
(declare-fun l_1_4_19 () Real)
(declare-fun l_1_4_15 () Real)
(declare-fun l_1_4_42 () Real)
(declare-fun l_1_5_8 () Real)
(declare-fun l_1_5_5 () Real)
(declare-fun l_1_5_51 () Real)
(declare-fun l_1_5_45 () Real)
(declare-fun l_1_5_41 () Real)
(declare-fun l_1_5_38 () Real)
(declare-fun l_1_5_37 () Real)
(declare-fun l_1_5_36 () Real)
(declare-fun l_1_5_35 () Real)
(declare-fun l_1_5_26 () Real)
(declare-fun l_1_5_20 () Real)
(declare-fun l_1_5_19 () Real)
(declare-fun l_1_5_18 () Real)
(declare-fun l_1_5_13 () Real)
(declare-fun l_1_5_12 () Real)
(declare-fun l_1_5_11 () Real)
(declare-fun l_1_5_44 () Real)
(declare-fun l_1_5_4 () Real)
(declare-fun l_1_5_30 () Real)
(declare-fun l_1_5_29 () Real)
(declare-fun l_1_5_27 () Real)
(declare-fun l_1_5_25 () Real)
(declare-fun l_1_5_22 () Real)
(declare-fun l_1_5_21 () Real)
(declare-fun l_1_5_2 () Real)
(declare-fun l_1_5_17 () Real)
(declare-fun l_1_5_16 () Real)
(declare-fun l_1_5_15 () Real)
(declare-fun l_1_5_14 () Real)
(declare-fun l_1_5_1 () Real)
(declare-fun l_1_5_9 () Real)
(declare-fun l_1_5_7 () Real)
(declare-fun l_1_5_50 () Real)
(declare-fun l_1_5_49 () Real)
(declare-fun l_1_5_48 () Real)
(declare-fun l_1_5_32 () Real)
(declare-fun l_1_5_42 () Real)
(declare-fun l_1_5_34 () Real)
(declare-fun l_1_5_31 () Real)
(declare-fun l_1_5_28 () Real)
(declare-fun l_1_5_23 () Real)
(declare-fun l_1_5_46 () Real)
(declare-fun l_1_5_54 () Real)
(declare-fun l_1_5_53 () Real)
(declare-fun l_1_5_52 () Real)
(declare-fun l_1_5_40 () Real)
(declare-fun l_1_5_39 () Real)
(declare-fun l_1_5_3 () Real)
(declare-fun l_1_5_24 () Real)
(declare-fun l_1_5_6 () Real)
(declare-fun l_1_5_47 () Real)
(declare-fun l_1_5_43 () Real)
(declare-fun l_1_5_33 () Real)
(declare-fun l_1_5_10 () Real)
(declare-fun l_1_6_60 () Real)
(declare-fun l_1_6_59 () Real)
(declare-fun l_1_6_56 () Real)
(declare-fun l_1_6_53 () Real)
(declare-fun l_1_6_52 () Real)
(declare-fun l_1_6_49 () Real)
(declare-fun l_1_6_47 () Real)
(declare-fun l_1_6_44 () Real)
(declare-fun l_1_6_43 () Real)
(declare-fun l_1_6_42 () Real)
(declare-fun l_1_6_34 () Real)
(declare-fun l_1_6_33 () Real)
(declare-fun l_1_6_31 () Real)
(declare-fun l_1_6_30 () Real)
(declare-fun l_1_6_3 () Real)
(declare-fun l_1_6_29 () Real)
(declare-fun l_1_6_28 () Real)
(declare-fun l_1_6_14 () Real)
(declare-fun l_1_6_13 () Real)
(declare-fun l_1_6_8 () Real)
(declare-fun l_1_6_6 () Real)
(declare-fun l_1_6_58 () Real)
(declare-fun l_1_6_55 () Real)
(declare-fun l_1_6_54 () Real)
(declare-fun l_1_6_51 () Real)
(declare-fun l_1_6_48 () Real)
(declare-fun l_1_6_35 () Real)
(declare-fun l_1_6_27 () Real)
(declare-fun l_1_6_26 () Real)
(declare-fun l_1_6_24 () Real)
(declare-fun l_1_6_21 () Real)
(declare-fun l_1_6_20 () Real)
(declare-fun l_1_6_1 () Real)
(declare-fun l_1_6_62 () Real)
(declare-fun l_1_6_9 () Real)
(declare-fun l_1_6_7 () Real)
(declare-fun l_1_6_57 () Real)
(declare-fun l_1_6_50 () Real)
(declare-fun l_1_6_5 () Real)
(declare-fun l_1_6_46 () Real)
(declare-fun l_1_6_41 () Real)
(declare-fun l_1_6_40 () Real)
(declare-fun l_1_6_37 () Real)
(declare-fun l_1_6_36 () Real)
(declare-fun l_1_6_32 () Real)
(declare-fun l_1_6_25 () Real)
(declare-fun l_1_6_2 () Real)
(declare-fun l_1_6_19 () Real)
(declare-fun l_1_6_18 () Real)
(declare-fun l_1_6_17 () Real)
(declare-fun l_1_6_11 () Real)
(declare-fun l_1_6_10 () Real)
(declare-fun l_1_6_65 () Real)
(declare-fun l_1_6_66 () Real)
(declare-fun l_1_6_61 () Real)
(declare-fun l_1_6_4 () Real)
(declare-fun l_1_6_38 () Real)
(declare-fun l_1_6_23 () Real)
(declare-fun l_1_6_22 () Real)
(declare-fun l_1_6_67 () Real)
(declare-fun l_1_6_64 () Real)
(declare-fun l_1_6_63 () Real)
(declare-fun l_1_6_45 () Real)
(declare-fun l_1_6_16 () Real)
(declare-fun l_1_6_15 () Real)
(declare-fun l_1_6_12 () Real)
(declare-fun l_1_6_68 () Real)
(declare-fun l_1_6_39 () Real)
(assert
 (= (- (- l_1_0_1) (* (* 2.0 l_1_0_4) l_1_0_5)) 0.0))
(assert
 (= (- (- (- l_1_0_2) l_1_0_3) (* l_1_0_4 l_1_0_4)) 0.0))
(assert
 (= (- (* (- l_1_0_5) l_1_0_5) (* l_1_0_6 l_1_0_6)) 0.0))
(assert
 (>= l_1_0_1 0.0))
(assert
 (>= l_1_0_2 0.0))
(assert
 (>= l_1_0_3 0.0))
(assert
 (>= l_1_0_4 0.0))
(assert
 (>= l_1_0_6 0.0))
(assert
 (= (- (- l_1_1_1) (* (* 2.0 l_1_1_6) l_1_1_7)) 0.0))
(assert
 (let ((?x3927 (* l_1_1_6 l_1_1_6)))
 (= (- (- (- (- (- l_1_1_2) l_1_1_3) l_1_1_4) l_1_1_5) ?x3927) 0.0)))
(assert
 (= (- (* (- l_1_1_7) l_1_1_7) (* l_1_1_8 l_1_1_8)) 0.0))
(assert
 (>= l_1_1_1 0.0))
(assert
 (>= l_1_1_2 0.0))
(assert
 (>= l_1_1_3 0.0))
(assert
 (>= l_1_1_4 0.0))
(assert
 (>= l_1_1_5 0.0))
(assert
 (>= l_1_1_6 0.0))
(assert
 (>= l_1_1_8 0.0))
(assert
 (= (+ (- (- l_1_2_1) (* (* 2.0 l_1_2_8) l_1_2_9)) 1.0) 0.0))
(assert
 (let ((?x3877 (* l_1_2_8 l_1_2_8)))
 (let ((?x3875 (- (- (- (- (- (- l_1_2_2) l_1_2_3) l_1_2_4) l_1_2_5) l_1_2_6) l_1_2_7)))
 (= (+ (- ?x3875 ?x3877) 1.0) 0.0))))
(assert
 (= (- (* (- l_1_2_10) l_1_2_10) (* l_1_2_9 l_1_2_9)) 0.0))
(assert
 (>= l_1_2_1 0.0))
(assert
 (>= l_1_2_2 0.0))
(assert
 (>= l_1_2_3 0.0))
(assert
 (>= l_1_2_4 0.0))
(assert
 (>= l_1_2_5 0.0))
(assert
 (>= l_1_2_6 0.0))
(assert
 (>= l_1_2_7 0.0))
(assert
 (>= l_1_2_8 0.0))
(assert
 (>= l_1_2_10 0.0))
(assert
 (let ((?x3791 (* l_1_3_33 l_1_3_33)))
 (let ((?x3787 (- (- (- (- l_1_3_13) (* 1.0 l_1_3_14)) (* 1.0 l_1_3_18)) (* 1.0 l_1_3_22))))
 (let ((?x3794 (- (- (- (- (- ?x3787 l_1_3_24) l_1_3_30) l_1_3_32) ?x3791) (* 1.0 l_1_3_9))))
 (= (+ ?x3794 1.0) 0.0)))))
(assert
 (let ((?x3770 (* l_1_3_42 l_1_3_42)))
 (let ((?x209 (* l_1_3_41 l_1_3_41)))
 (let ((?x3405 (* l_1_3_40 l_1_3_40)))
 (let ((?x1362 (* l_1_3_39 l_1_3_39)))
 (let ((?x3402 (- (+ (+ (- l_1_3_1) l_1_3_16) l_1_3_17) l_1_3_29)))
 (= (- (- (- (- ?x3402 ?x1362) ?x3405) ?x209) ?x3770) 0.0)))))))
(assert
 (let ((?x3414 (* 2.0 l_1_3_29)))
 (let ((?x3779 (* 2.0 l_1_3_17)))
 (= (+ (- (- (* 2.0 l_1_3_1) (* 2.0 l_1_3_16)) ?x3779) ?x3414) 0.0))))
(assert
 (let ((?x3402 (- (+ (+ (- l_1_3_1) l_1_3_16) l_1_3_17) l_1_3_29)))
 (= ?x3402 0.0)))
(assert
 (let ((?x1252 (- (+ (- (- (+ l_1_3_12 l_1_3_19) l_1_3_2) l_1_3_21) l_1_3_25) l_1_3_28)))
 (let ((?x1220 (- (- ?x1252 (* (* 2.0 l_1_3_34) l_1_3_39)) (* (* 2.0 l_1_3_35) l_1_3_40))))
 (= (- (+ ?x1220 l_1_3_5) l_1_3_6) 0.0))))
(assert
 (let ((?x3711 (- (+ (+ (- (- l_1_3_12) l_1_3_19) l_1_3_2) l_1_3_21) l_1_3_25)))
 (let ((?x3500 (+ ?x3711 l_1_3_28)))
 (= (+ (- ?x3500 l_1_3_5) l_1_3_6) 0.0))))
(assert
 (let ((?x692 (* 1.0 l_1_3_6)))
 (let ((?x3617 (* 1.0 l_1_3_5)))
 (let ((?x3687 (- (+ (- (* 1.0 l_1_3_12) (* 1.0 l_1_3_2)) l_1_3_20) l_1_3_26)))
 (let ((?x3492 (- (- (- (+ ?x3687 l_1_3_27) l_1_3_3) l_1_3_31) (* (* 2.0 l_1_3_33) l_1_3_39))))
 (= (+ (- (+ ?x3492 ?x3617) ?x692) l_1_3_7) 0.0))))))
(assert
 (let ((?x692 (* 1.0 l_1_3_6)))
 (let ((?x3617 (* 1.0 l_1_3_5)))
 (let ((?x3641 (+ (- (+ (* (- 1.0) l_1_3_12) (* 1.0 l_1_3_2)) l_1_3_20) l_1_3_26)))
 (let ((?x3646 (- (+ (- (+ (+ (- ?x3641 l_1_3_27) l_1_3_3) l_1_3_31) ?x3617) ?x692) l_1_3_7)))
 (= ?x3646 0.0))))))
(assert
 (let ((?x3711 (- (+ (+ (- (- l_1_3_12) l_1_3_19) l_1_3_2) l_1_3_21) l_1_3_25)))
 (let ((?x3500 (+ ?x3711 l_1_3_28)))
 (let ((?x3561 (- (- ?x3500 (* (* 2.0 l_1_3_36) l_1_3_39)) (* (* 2.0 l_1_3_37) l_1_3_40))))
 (let ((?x3566 (+ (- (- ?x3561 (* (* 2.0 l_1_3_38) l_1_3_41)) l_1_3_5) l_1_3_6)))
 (= ?x3566 0.0))))))
(assert
 (let ((?x1252 (- (+ (- (- (+ l_1_3_12 l_1_3_19) l_1_3_2) l_1_3_21) l_1_3_25) l_1_3_28)))
 (= (- (+ ?x1252 l_1_3_5) l_1_3_6) 0.0)))
(assert
 (let ((?x3510 (* l_1_3_35 l_1_3_35)))
 (let ((?x3513 (- (- (- (- l_1_3_10 l_1_3_22) (* l_1_3_34 l_1_3_34)) ?x3510) l_1_3_4)))
 (= (+ ?x3513 l_1_3_8) 0.0))))
(assert
 (let ((?x3441 (* 2.0 l_1_3_8)))
 (let ((?x3438 (* 2.0 l_1_3_4)))
 (let ((?x3471 (* 2.0 l_1_3_22)))
 (let ((?x3220 (* (- 2.0) l_1_3_10)))
 (let ((?x3472 (+ ?x3220 ?x3471)))
 (let ((?x3475 (- (- ?x3472 (* (* 2.0 l_1_3_34) l_1_3_36)) (* (* 2.0 l_1_3_35) l_1_3_37))))
 (= (- (+ ?x3475 ?x3438) ?x3441) 0.0))))))))
(assert
 (let ((?x3337 (* l_1_3_38 l_1_3_38)))
 (let ((?x3367 (* l_1_3_37 l_1_3_37)))
 (let ((?x3340 (- (- (- (- l_1_3_10 l_1_3_22) (* l_1_3_36 l_1_3_36)) ?x3367) ?x3337)))
 (= (+ (- ?x3340 l_1_3_4) l_1_3_8) 0.0)))))
(assert
 (let ((?x3215 (* 1.0 l_1_3_8)))
 (let ((?x3471 (* 2.0 l_1_3_22)))
 (let ((?x3286 (- (+ (- (+ (* 1.0 l_1_3_10) l_1_3_11) l_1_3_14) l_1_3_15) l_1_3_18)))
 (let ((?x3260 (+ (- (+ (- ?x3286 ?x3471) l_1_3_23) (* (* 2.0 l_1_3_33) l_1_3_34)) ?x3215)))
 (= (- ?x3260 l_1_3_9) 0.0))))))
(assert
 (let ((?x3215 (* 1.0 l_1_3_8)))
 (let ((?x3471 (* 2.0 l_1_3_22)))
 (let ((?x3209 (+ (- (+ (- (* (- 1.0) l_1_3_10) l_1_3_11) l_1_3_14) l_1_3_15) l_1_3_18)))
 (let ((?x172 (- (- (- (+ ?x3209 ?x3471) l_1_3_23) (* (* 2.0 l_1_3_33) l_1_3_36)) ?x3215)))
 (= (+ ?x172 l_1_3_9) 0.0))))))
(assert
 (>= l_1_3_1 0.0))
(assert
 (>= l_1_3_2 0.0))
(assert
 (>= l_1_3_3 0.0))
(assert
 (>= l_1_3_4 0.0))
(assert
 (>= l_1_3_5 0.0))
(assert
 (>= l_1_3_6 0.0))
(assert
 (>= l_1_3_7 0.0))
(assert
 (>= l_1_3_8 0.0))
(assert
 (>= l_1_3_9 0.0))
(assert
 (>= l_1_3_10 0.0))
(assert
 (>= l_1_3_11 0.0))
(assert
 (>= l_1_3_12 0.0))
(assert
 (>= l_1_3_13 0.0))
(assert
 (>= l_1_3_14 0.0))
(assert
 (>= l_1_3_15 0.0))
(assert
 (>= l_1_3_16 0.0))
(assert
 (>= l_1_3_17 0.0))
(assert
 (>= l_1_3_18 0.0))
(assert
 (>= l_1_3_19 0.0))
(assert
 (>= l_1_3_20 0.0))
(assert
 (>= l_1_3_21 0.0))
(assert
 (>= l_1_3_22 0.0))
(assert
 (>= l_1_3_23 0.0))
(assert
 (>= l_1_3_24 0.0))
(assert
 (>= l_1_3_25 0.0))
(assert
 (>= l_1_3_26 0.0))
(assert
 (>= l_1_3_27 0.0))
(assert
 (>= l_1_3_28 0.0))
(assert
 (>= l_1_3_29 0.0))
(assert
 (>= l_1_3_30 0.0))
(assert
 (>= l_1_3_31 0.0))
(assert
 (>= l_1_3_32 0.0))
(assert
 (>= l_1_3_33 0.0))
(assert
 (>= l_1_3_35 0.0))
(assert
 (>= l_1_3_38 0.0))
(assert
 (>= l_1_3_42 0.0))
(assert
 (let ((?x3176 (* 1.0 l_1_4_8)))
 (let ((?x2323 (* 1.0 l_1_4_29)))
 (let ((?x157 (* 1.0 l_1_4_26)))
 (let ((?x3173 (+ (- (- (+ (* 1.0 l_1_4_13) l_1_4_14) l_1_4_21) ?x157) l_1_4_28)))
 (let ((?x3150 (+ (- (+ (- (- (+ ?x3173 ?x2323) l_1_4_3) l_1_4_4) l_1_4_7) ?x3176) 1.0)))
 (= ?x3150 0.0)))))))
(assert
 (= (- 6.0 _a_5_) 0.0))
(assert
 (= (- 15.0 _a_4_) 0.0))
(assert
 (= (- 20.0 _a_2_) 0.0))
(assert
 (let ((?x2610 (* l_1_4_38 l_1_4_38)))
 (let ((?x3127 (* l_1_4_37 l_1_4_37)))
 (let ((?x2607 (* l_1_4_36 l_1_4_36)))
 (let ((?x3128 (- (- (- (- (- (- _a_1_) l_1_4_1) l_1_4_12) l_1_4_18) ?x2607) ?x3127)))
 (= (+ (- (- ?x3128 ?x2610) l_1_4_6) 15.0) 0.0))))))
(assert
 (let ((?x2564 (* 1.0 l_1_4_6)))
 (let ((?x3048 (* 2.0 l_1_4_18)))
 (let ((?x2576 (+ (+ (+ (+ (- _a_3_) l_1_4_10) (* 1.0 l_1_4_12)) l_1_4_17) ?x3048)))
 (let ((?x3021 (- (+ (+ (+ ?x2576 l_1_4_23) l_1_4_24) l_1_4_27) (* (* 2.0 l_1_4_33) l_1_4_36))))
 (= (+ (+ (+ ?x3021 l_1_4_5) ?x2564) 6.0) 0.0))))))
(assert
 (let ((?x2798 (* l_1_4_33 l_1_4_33)))
 (let ((?x150 (- (- (- (- _a_0_) (* 1.0 l_1_4_10)) (* 1.0 l_1_4_17)) (* 1.0 l_1_4_18))))
 (let ((?x3000 (- (- (- (- (- ?x150 l_1_4_2) l_1_4_20) l_1_4_32) ?x2798) (* 1.0 l_1_4_5))))
 (= (+ (- ?x3000 l_1_4_9) 1.0) 0.0)))))
(assert
 (let ((?x3176 (* 1.0 l_1_4_8)))
 (let ((?x2323 (* 1.0 l_1_4_29)))
 (let ((?x157 (* 1.0 l_1_4_26)))
 (let ((?x2670 (- (+ (+ (- (* (- 1.0) l_1_4_13) l_1_4_14) l_1_4_21) ?x157) l_1_4_28)))
 (let ((?x2976 (+ (- (+ (- ?x2670 ?x2323) l_1_4_3) (* (* 2.0 l_1_4_33) l_1_4_39)) l_1_4_4)))
 (= (- (+ (- ?x2976 l_1_4_7) ?x3176) 1.0) 0.0)))))))
(assert
 (let ((?x2937 (* l_1_4_35 l_1_4_35)))
 (let ((?x2933 (* l_1_4_34 l_1_4_34)))
 (let ((?x2940 (- (- (- (- (- (- l_1_4_1) l_1_4_12) l_1_4_18) ?x2933) ?x2937) l_1_4_6)))
 (= ?x2940 0.0)))))
(assert
 (let ((?x2417 (* 2.0 l_1_4_6)))
 (let ((?x3048 (* 2.0 l_1_4_18)))
 (let ((?x2889 (- (+ (+ (* 2.0 l_1_4_1) (* 2.0 l_1_4_12)) ?x3048) (* (* 2.0 l_1_4_34) l_1_4_36))))
 (= (+ (- ?x2889 (* (* 2.0 l_1_4_35) l_1_4_37)) ?x2417) 0.0)))))
(assert
 (let ((?x2564 (* 1.0 l_1_4_6)))
 (let ((?x3048 (* 2.0 l_1_4_18)))
 (let ((?x2764 (- (- (- (- (- l_1_4_10) (* 1.0 l_1_4_12)) l_1_4_17) ?x3048) l_1_4_23)))
 (let ((?x2768 (- (- (- ?x2764 l_1_4_24) l_1_4_27) (* (* 2.0 l_1_4_33) l_1_4_34))))
 (= (- (- ?x2768 l_1_4_5) ?x2564) 0.0))))))
(assert
 (let ((?x2675 (+ (- (+ (+ (- l_1_4_11) l_1_4_13) l_1_4_16) l_1_4_26) l_1_4_29)))
 (let ((?x2676 (+ (- ?x2675 l_1_4_30) l_1_4_31)))
 (= (- ?x2676 l_1_4_8) 0.0))))
(assert
 (let ((?x2695 (+ (- (+ (- (- l_1_4_11 l_1_4_13) l_1_4_16) l_1_4_26) l_1_4_29) l_1_4_30)))
 (let ((?x2590 (- ?x2695 l_1_4_31)))
 (= (+ ?x2590 l_1_4_8) 0.0))))
(assert
 (let ((?x2695 (+ (- (+ (- (- l_1_4_11 l_1_4_13) l_1_4_16) l_1_4_26) l_1_4_29) l_1_4_30)))
 (let ((?x2590 (- ?x2695 l_1_4_31)))
 (let ((?x2559 (- (- ?x2590 (* (* 2.0 l_1_4_34) l_1_4_39)) (* (* 2.0 l_1_4_35) l_1_4_40))))
 (= (+ ?x2559 l_1_4_8) 0.0)))))
(assert
 (let ((?x2675 (+ (- (+ (+ (- l_1_4_11) l_1_4_13) l_1_4_16) l_1_4_26) l_1_4_29)))
 (let ((?x2676 (+ (- ?x2675 l_1_4_30) l_1_4_31)))
 (let ((?x2501 (- (- ?x2676 (* (* 2.0 l_1_4_36) l_1_4_39)) (* (* 2.0 l_1_4_37) l_1_4_40))))
 (= (- (- ?x2501 (* (* 2.0 l_1_4_38) l_1_4_41)) l_1_4_8) 0.0)))))
(assert
 (let ((?x2196 (+ (- (+ (- l_1_4_15) l_1_4_19) l_1_4_22) l_1_4_25)))
 (= ?x2196 0.0)))
(assert
 (let ((?x2344 (* 2.0 l_1_4_25)))
 (let ((?x2342 (* 2.0 l_1_4_22)))
 (= (- (+ (- (* 2.0 l_1_4_15) (* 2.0 l_1_4_19)) ?x2342) ?x2344) 0.0))))
(assert
 (let ((?x2264 (* l_1_4_42 l_1_4_42)))
 (let ((?x2260 (* l_1_4_41 l_1_4_41)))
 (let ((?x2258 (* l_1_4_40 l_1_4_40)))
 (let ((?x2256 (* l_1_4_39 l_1_4_39)))
 (let ((?x2196 (+ (- (+ (- l_1_4_15) l_1_4_19) l_1_4_22) l_1_4_25)))
 (= (- (- (- (- ?x2196 ?x2256) ?x2258) ?x2260) ?x2264) 0.0)))))))
(assert
 (>= l_1_4_1 0.0))
(assert
 (>= l_1_4_2 0.0))
(assert
 (>= l_1_4_3 0.0))
(assert
 (>= l_1_4_4 0.0))
(assert
 (>= l_1_4_5 0.0))
(assert
 (>= l_1_4_6 0.0))
(assert
 (>= l_1_4_7 0.0))
(assert
 (>= l_1_4_8 0.0))
(assert
 (>= l_1_4_9 0.0))
(assert
 (>= l_1_4_10 0.0))
(assert
 (>= l_1_4_11 0.0))
(assert
 (>= l_1_4_12 0.0))
(assert
 (>= l_1_4_13 0.0))
(assert
 (>= l_1_4_14 0.0))
(assert
 (>= l_1_4_15 0.0))
(assert
 (>= l_1_4_16 0.0))
(assert
 (>= l_1_4_17 0.0))
(assert
 (>= l_1_4_18 0.0))
(assert
 (>= l_1_4_19 0.0))
(assert
 (>= l_1_4_20 0.0))
(assert
 (>= l_1_4_21 0.0))
(assert
 (>= l_1_4_22 0.0))
(assert
 (>= l_1_4_23 0.0))
(assert
 (>= l_1_4_24 0.0))
(assert
 (>= l_1_4_25 0.0))
(assert
 (>= l_1_4_26 0.0))
(assert
 (>= l_1_4_27 0.0))
(assert
 (>= l_1_4_28 0.0))
(assert
 (>= l_1_4_29 0.0))
(assert
 (>= l_1_4_30 0.0))
(assert
 (>= l_1_4_31 0.0))
(assert
 (>= l_1_4_32 0.0))
(assert
 (>= l_1_4_33 0.0))
(assert
 (>= l_1_4_35 0.0))
(assert
 (>= l_1_4_38 0.0))
(assert
 (>= l_1_4_42 0.0))
(assert
 (let ((?x75 (* 1.0 l_1_5_5)))
 (let ((?x85 (* 1.0 l_1_5_36)))
 (let ((?x2182 (* 1.0 l_1_5_26)))
 (let ((?x2183 (- (+ (- (+ (* 1.0 l_1_5_11) l_1_5_12) l_1_5_13) l_1_5_18) l_1_5_19)))
 (let ((?x2179 (+ (+ (+ (+ (- (- ?x2183 l_1_5_20) ?x2182) l_1_5_35) ?x85) l_1_5_37) l_1_5_38)))
 (let ((?x73 (- (- (- (- ?x2179 l_1_5_41) (* (* 2.0 l_1_5_45) l_1_5_51)) ?x75) l_1_5_8)))
 (= (+ ?x73 1.0) 0.0))))))))
(assert
 (let ((?x2062 (* l_1_5_45 l_1_5_45)))
 (let ((?x2100 (- (- (- _a_0_ (* 1.0 l_1_5_1)) l_1_5_14) (* 1.0 l_1_5_15))))
 (let ((?x1288 (- (- (- (- ?x2100 (* 1.0 l_1_5_16)) l_1_5_17) l_1_5_2) (* 1.0 l_1_5_21))))
 (let ((?x2060 (- (- (- (- ?x1288 l_1_5_22) l_1_5_25) l_1_5_27) (* 1.0 l_1_5_29))))
 (let ((?x1625 (- (- (- (- (- ?x2060 (* 1.0 l_1_5_30)) l_1_5_4) l_1_5_44) ?x2062) 1.0)))
 (= ?x1625 0.0)))))))
(assert
 (let ((?x1953 (* l_1_5_50 l_1_5_50)))
 (let ((?x86 (* l_1_5_49 l_1_5_49)))
 (let ((?x1950 (- (- (- (- _a_1_ l_1_5_15) l_1_5_32) (* l_1_5_48 l_1_5_48)) ?x86)))
 (= (- (- (- (- ?x1950 ?x1953) l_1_5_7) l_1_5_9) 15.0) 0.0)))))
(assert
 (= (- _a_2_ 20.0) 0.0))
(assert
 (let ((?x1677 (* 1.0 l_1_5_9)))
 (let ((?x1518 (* 1.0 l_1_5_32)))
 (let ((?x1966 (+ (+ (+ (+ _a_3_ l_1_5_1) (* 2.0 l_1_5_15)) l_1_5_16) l_1_5_21)))
 (let ((?x1931 (+ (+ (+ (+ (+ ?x1966 l_1_5_23) l_1_5_28) l_1_5_29) l_1_5_30) l_1_5_31)))
 (let ((?x1676 (- (+ (+ (+ ?x1931 ?x1518) l_1_5_34) l_1_5_42) (* (* 2.0 l_1_5_45) l_1_5_48))))
 (= (- (+ ?x1676 ?x1677) 6.0) 0.0)))))))
(assert
 (= (- _a_4_ 15.0) 0.0))
(assert
 (= (- _a_5_ 6.0) 0.0))
(assert
 (let ((?x75 (* 1.0 l_1_5_5)))
 (let ((?x85 (* 1.0 l_1_5_36)))
 (let ((?x2182 (* 1.0 l_1_5_26)))
 (let ((?x1464 (+ (- (+ (- (* (- 1.0) l_1_5_11) l_1_5_12) l_1_5_13) l_1_5_18) l_1_5_19)))
 (let ((?x1467 (- (- (- (- (+ (+ ?x1464 l_1_5_20) ?x2182) l_1_5_35) ?x85) l_1_5_37) l_1_5_38)))
 (= (- (+ (+ (+ ?x1467 l_1_5_41) ?x75) l_1_5_8) 1.0) 0.0)))))))
(assert
 (let ((?x1677 (* 1.0 l_1_5_9)))
 (let ((?x1518 (* 1.0 l_1_5_32)))
 (let ((?x1842 (- (- (- (- (- l_1_5_1) (* 2.0 l_1_5_15)) l_1_5_16) l_1_5_21) l_1_5_23)))
 (let ((?x1791 (- (- (- (- (- ?x1842 l_1_5_28) l_1_5_29) l_1_5_30) l_1_5_31) ?x1518)))
 (let ((?x1793 (- (- (- ?x1791 l_1_5_34) l_1_5_42) (* (* 2.0 l_1_5_45) l_1_5_46))))
 (= (- ?x1793 ?x1677) 0.0)))))))
(assert
 (let ((?x1687 (* l_1_5_54 l_1_5_54)))
 (let ((?x1685 (* l_1_5_53 l_1_5_53)))
 (let ((?x1683 (* l_1_5_52 l_1_5_52)))
 (let ((?x1623 (* l_1_5_51 l_1_5_51)))
 (let ((?x1681 (- (+ (- l_1_5_24 l_1_5_3) l_1_5_39) l_1_5_40)))
 (= (- (- (- (- ?x1681 ?x1623) ?x1683) ?x1685) ?x1687) 0.0)))))))
(assert
 (let ((?x1595 (* 2.0 l_1_5_39)))
 (let ((?x1591 (* 2.0 l_1_5_3)))
 (let ((?x1589 (* (- 2.0) l_1_5_24)))
 (let ((?x1593 (+ ?x1589 ?x1591)))
 (= (+ (- ?x1593 ?x1595) (* 2.0 l_1_5_40)) 0.0))))))
(assert
 (let ((?x1681 (- (+ (- l_1_5_24 l_1_5_3) l_1_5_39) l_1_5_40)))
 (= ?x1681 0.0)))
(assert
 (let ((?x1491 (+ (+ (- (- (+ l_1_5_10 l_1_5_11) l_1_5_26) l_1_5_33) l_1_5_36) l_1_5_43)))
 (let ((?x1466 (- (- ?x1491 (* (* 2.0 l_1_5_46) l_1_5_51)) (* (* 2.0 l_1_5_47) l_1_5_52))))
 (= (- (- ?x1466 l_1_5_5) l_1_5_6) 0.0))))
(assert
 (let ((?x1345 (- (+ (+ (- (- l_1_5_10) l_1_5_11) l_1_5_26) l_1_5_33) l_1_5_36)))
 (let ((?x1347 (- ?x1345 l_1_5_43)))
 (= (+ (+ ?x1347 l_1_5_5) l_1_5_6) 0.0))))
(assert
 (let ((?x1345 (- (+ (+ (- (- l_1_5_10) l_1_5_11) l_1_5_26) l_1_5_33) l_1_5_36)))
 (let ((?x1347 (- ?x1345 l_1_5_43)))
 (let ((?x1309 (- (- ?x1347 (* (* 2.0 l_1_5_48) l_1_5_51)) (* (* 2.0 l_1_5_49) l_1_5_52))))
 (let ((?x1314 (+ (- (+ ?x1309 l_1_5_5) (* (* 2.0 l_1_5_50) l_1_5_53)) l_1_5_6)))
 (= ?x1314 0.0))))))
(assert
 (let ((?x1491 (+ (+ (- (- (+ l_1_5_10 l_1_5_11) l_1_5_26) l_1_5_33) l_1_5_36) l_1_5_43)))
 (= (- (- ?x1491 l_1_5_5) l_1_5_6) 0.0)))
(assert
 (let ((?x55 (* l_1_5_47 l_1_5_47)))
 (let ((?x53 (- (- (- (- (- l_1_5_15) l_1_5_32) (* l_1_5_46 l_1_5_46)) ?x55) l_1_5_7)))
 (= (- ?x53 l_1_5_9) 0.0))))
(assert
 (let ((?x1226 (* 2.0 l_1_5_9)))
 (let ((?x1227 (* 2.0 l_1_5_7)))
 (let ((?x28 (- (+ (* 2.0 l_1_5_15) (* 2.0 l_1_5_32)) (* (* 2.0 l_1_5_46) l_1_5_48))))
 (= (+ (+ (- ?x28 (* (* 2.0 l_1_5_47) l_1_5_49)) ?x1227) ?x1226) 0.0)))))
(assert
 (>= l_1_5_1 0.0))
(assert
 (>= l_1_5_2 0.0))
(assert
 (>= l_1_5_3 0.0))
(assert
 (>= l_1_5_4 0.0))
(assert
 (>= l_1_5_5 0.0))
(assert
 (>= l_1_5_6 0.0))
(assert
 (>= l_1_5_7 0.0))
(assert
 (>= l_1_5_8 0.0))
(assert
 (>= l_1_5_9 0.0))
(assert
 (>= l_1_5_10 0.0))
(assert
 (>= l_1_5_11 0.0))
(assert
 (>= l_1_5_12 0.0))
(assert
 (>= l_1_5_13 0.0))
(assert
 (>= l_1_5_14 0.0))
(assert
 (>= l_1_5_15 0.0))
(assert
 (>= l_1_5_16 0.0))
(assert
 (>= l_1_5_17 0.0))
(assert
 (>= l_1_5_18 0.0))
(assert
 (>= l_1_5_19 0.0))
(assert
 (>= l_1_5_20 0.0))
(assert
 (>= l_1_5_21 0.0))
(assert
 (>= l_1_5_22 0.0))
(assert
 (>= l_1_5_23 0.0))
(assert
 (>= l_1_5_24 0.0))
(assert
 (>= l_1_5_25 0.0))
(assert
 (>= l_1_5_26 0.0))
(assert
 (>= l_1_5_27 0.0))
(assert
 (>= l_1_5_28 0.0))
(assert
 (>= l_1_5_29 0.0))
(assert
 (>= l_1_5_30 0.0))
(assert
 (>= l_1_5_31 0.0))
(assert
 (>= l_1_5_32 0.0))
(assert
 (>= l_1_5_33 0.0))
(assert
 (>= l_1_5_34 0.0))
(assert
 (>= l_1_5_35 0.0))
(assert
 (>= l_1_5_36 0.0))
(assert
 (>= l_1_5_37 0.0))
(assert
 (>= l_1_5_38 0.0))
(assert
 (>= l_1_5_39 0.0))
(assert
 (>= l_1_5_40 0.0))
(assert
 (>= l_1_5_41 0.0))
(assert
 (>= l_1_5_42 0.0))
(assert
 (>= l_1_5_43 0.0))
(assert
 (>= l_1_5_44 0.0))
(assert
 (>= l_1_5_45 0.0))
(assert
 (>= l_1_5_47 0.0))
(assert
 (>= l_1_5_50 0.0))
(assert
 (>= l_1_5_54 0.0))
(assert
 (let ((?x1086 (* 1.0 l_1_6_49)))
 (let ((?x1099 (* 2.0 l_1_6_42)))
 (let ((?x1096 (* 1.0 l_1_6_30)))
 (let ((?x1091 (- (- (- (- (- l_1_6_13) l_1_6_14) l_1_6_28) l_1_6_29) l_1_6_3)))
 (let ((?x1084 (- (- (- (- (- (- ?x1091 ?x1096) l_1_6_31) l_1_6_33) l_1_6_34) ?x1099) l_1_6_43)))
 (let ((?x1081 (- (- (- (- (- ?x1084 l_1_6_44) l_1_6_47) ?x1086) l_1_6_52) l_1_6_53)))
 (let ((?x1088 (+ (- (- ?x1081 l_1_6_56) (* (* 2.0 l_1_6_59) l_1_6_60)) 1.0)))
 (= ?x1088 0.0)))))))))
(assert
 (let ((?x495 (* l_1_6_59 l_1_6_59)))
 (let ((?x493 (- (- (- (- l_1_6_1) (* 1.0 l_1_6_13)) (* 1.0 l_1_6_14)) l_1_6_20)))
 (let ((?x738 (- (- (- (- (- ?x493 l_1_6_21) l_1_6_24) l_1_6_26) l_1_6_27) (* 1.0 l_1_6_29))))
 (let ((?x746 (- (- (- ?x738 (* 1.0 l_1_6_3)) l_1_6_35) (* 1.0 l_1_6_42))))
 (let ((?x60 (- (- (- ?x746 (* 1.0 l_1_6_44)) (* 1.0 l_1_6_47)) l_1_6_48)))
 (let ((?x927 (- (- (- (- ?x60 l_1_6_51) (* 1.0 l_1_6_53)) l_1_6_54) l_1_6_55)))
 (= (- (- (- (- ?x927 l_1_6_58) ?x495) l_1_6_6) l_1_6_8) 0.0))))))))
(assert
 (let ((?x1086 (* 1.0 l_1_6_49)))
 (let ((?x1099 (* 2.0 l_1_6_42)))
 (let ((?x1096 (* 1.0 l_1_6_30)))
 (let ((?x592 (+ (+ (+ (+ (+ l_1_6_13 l_1_6_14) l_1_6_28) l_1_6_29) l_1_6_3) ?x1096)))
 (let ((?x799 (+ (+ (+ (+ (+ ?x592 l_1_6_31) l_1_6_33) l_1_6_34) ?x1099) l_1_6_43)))
 (let ((?x802 (+ (+ (+ (+ (+ ?x799 l_1_6_44) l_1_6_47) ?x1086) l_1_6_52) l_1_6_53)))
 (let ((?x809 (- (- (+ ?x802 l_1_6_56) (* (* 2.0 l_1_6_59) l_1_6_62)) 1.0)))
 (= ?x809 0.0)))))))))
(assert
 (let ((?x721 (* 1.0 l_1_6_9)))
 (let ((?x716 (* 1.0 l_1_6_5)))
 (let ((?x380 (* 1.0 l_1_6_25)))
 (let ((?x708 (- (+ (+ (- (- l_1_6_10) l_1_6_11) (* 1.0 l_1_6_17)) l_1_6_18) l_1_6_19)))
 (let ((?x712 (+ (+ (- (- (- ?x708 l_1_6_2) ?x380) l_1_6_32) l_1_6_36) l_1_6_37)))
 (let ((?x718 (+ (+ (+ (+ (- ?x712 l_1_6_40) l_1_6_41) l_1_6_46) ?x716) l_1_6_50)))
 (= (- (- (+ ?x718 l_1_6_57) l_1_6_7) ?x721) 0.0))))))))
(assert
 (let ((?x721 (* 1.0 l_1_6_9)))
 (let ((?x716 (* 1.0 l_1_6_5)))
 (let ((?x380 (* 1.0 l_1_6_25)))
 (let ((?x606 (+ (- (- (+ l_1_6_10 l_1_6_11) (* 1.0 l_1_6_17)) l_1_6_18) l_1_6_19)))
 (let ((?x567 (- (- (+ (+ (+ ?x606 l_1_6_2) ?x380) l_1_6_32) l_1_6_36) l_1_6_37)))
 (let ((?x534 (- (- (- (- (+ ?x567 l_1_6_40) l_1_6_41) l_1_6_46) ?x716) l_1_6_50)))
 (let ((?x542 (+ (- (- ?x534 l_1_6_57) (* (* 2.0 l_1_6_59) l_1_6_65)) l_1_6_7)))
 (= (+ ?x542 ?x721) 0.0)))))))))
(assert
 (let ((?x360 (- (+ (+ (+ (- l_1_6_17) l_1_6_22) l_1_6_23) l_1_6_25) l_1_6_38)))
 (let ((?x381 (- (- ?x360 l_1_6_4) l_1_6_5)))
 (let ((?x365 (- (- ?x381 (* (* 2.0 l_1_6_60) l_1_6_65)) (* (* 2.0 l_1_6_61) l_1_6_66))))
 (= (+ ?x365 l_1_6_9) 0.0)))))
(assert
 (let ((?x305 (+ (+ (- (- (- l_1_6_17 l_1_6_22) l_1_6_23) l_1_6_25) l_1_6_38) l_1_6_4)))
 (let ((?x16 (+ ?x305 l_1_6_5)))
 (let ((?x13 (- (- ?x16 (* (* 2.0 l_1_6_62) l_1_6_65)) (* (* 2.0 l_1_6_63) l_1_6_66))))
 (= (- (- ?x13 (* (* 2.0 l_1_6_64) l_1_6_67)) l_1_6_9) 0.0)))))
(assert
 (let ((?x305 (+ (+ (- (- (- l_1_6_17 l_1_6_22) l_1_6_23) l_1_6_25) l_1_6_38) l_1_6_4)))
 (let ((?x16 (+ ?x305 l_1_6_5)))
 (= (- ?x16 l_1_6_9) 0.0))))
(assert
 (let ((?x360 (- (+ (+ (+ (- l_1_6_17) l_1_6_22) l_1_6_23) l_1_6_25) l_1_6_38)))
 (let ((?x381 (- (- ?x360 l_1_6_4) l_1_6_5)))
 (= (+ ?x381 l_1_6_9) 0.0))))
(assert
 (let ((?x2045 (* 2.0 l_1_6_45)))
 (let ((?x2038 (* 2.0 l_1_6_16)))
 (let ((?x2047 (* 2.0 l_1_6_15)))
 (let ((?x2007 (* (- 2.0) l_1_6_12)))
 (let ((?x2035 (+ ?x2007 ?x2047)))
 (= (+ (- ?x2035 ?x2038) ?x2045) 0.0)))))))
(assert
 (let ((?x2478 (- (+ (- l_1_6_12 l_1_6_15) l_1_6_16) l_1_6_45)))
 (= ?x2478 0.0)))
(assert
 (let ((?x686 (* l_1_6_68 l_1_6_68)))
 (let ((?x3331 (* l_1_6_67 l_1_6_67)))
 (let ((?x3332 (* l_1_6_66 l_1_6_66)))
 (let ((?x1260 (* l_1_6_65 l_1_6_65)))
 (let ((?x2478 (- (+ (- l_1_6_12 l_1_6_15) l_1_6_16) l_1_6_45)))
 (= (- (- (- (- ?x2478 ?x1260) ?x3332) ?x3331) ?x686) 0.0)))))))
(assert
 (let ((?x1825 (* l_1_6_61 l_1_6_61)))
 (let ((?x1566 (* l_1_6_60 l_1_6_60)))
 (let ((?x1562 (- (- (- (- l_1_6_30) l_1_6_39) l_1_6_42) l_1_6_49)))
 (= (- (- ?x1562 ?x1566) ?x1825) 0.0)))))
(assert
 (let ((?x1326 (* 2.0 l_1_6_49)))
 (let ((?x1099 (* 2.0 l_1_6_42)))
 (let ((?x3359 (- (+ (+ (+ (* 2.0 l_1_6_30) (* 2.0 l_1_6_39)) ?x1099) ?x1326) (* (* 2.0 l_1_6_60) l_1_6_62))))
 (= (- ?x3359 (* (* 2.0 l_1_6_61) l_1_6_63)) 0.0)))))
(assert
 (let ((?x3543 (* l_1_6_64 l_1_6_64)))
 (let ((?x3305 (* l_1_6_63 l_1_6_63)))
 (let ((?x3304 (* l_1_6_62 l_1_6_62)))
 (let ((?x1562 (- (- (- (- l_1_6_30) l_1_6_39) l_1_6_42) l_1_6_49)))
 (= (- (- (- ?x1562 ?x3304) ?x3305) ?x3543) 0.0))))))
(assert
 (>= l_1_6_1 0.0))
(assert
 (>= l_1_6_2 0.0))
(assert
 (>= l_1_6_3 0.0))
(assert
 (>= l_1_6_4 0.0))
(assert
 (>= l_1_6_5 0.0))
(assert
 (>= l_1_6_6 0.0))
(assert
 (>= l_1_6_7 0.0))
(assert
 (>= l_1_6_8 0.0))
(assert
 (>= l_1_6_9 0.0))
(assert
 (>= l_1_6_10 0.0))
(assert
 (>= l_1_6_11 0.0))
(assert
 (>= l_1_6_12 0.0))
(assert
 (>= l_1_6_13 0.0))
(assert
 (>= l_1_6_14 0.0))
(assert
 (>= l_1_6_15 0.0))
(assert
 (>= l_1_6_16 0.0))
(assert
 (>= l_1_6_17 0.0))
(assert
 (>= l_1_6_18 0.0))
(assert
 (>= l_1_6_19 0.0))
(assert
 (>= l_1_6_20 0.0))
(assert
 (>= l_1_6_21 0.0))
(assert
 (>= l_1_6_22 0.0))
(assert
 (>= l_1_6_23 0.0))
(assert
 (>= l_1_6_24 0.0))
(assert
 (>= l_1_6_25 0.0))
(assert
 (>= l_1_6_26 0.0))
(assert
 (>= l_1_6_27 0.0))
(assert
 (>= l_1_6_28 0.0))
(assert
 (>= l_1_6_29 0.0))
(assert
 (>= l_1_6_30 0.0))
(assert
 (>= l_1_6_31 0.0))
(assert
 (>= l_1_6_32 0.0))
(assert
 (>= l_1_6_33 0.0))
(assert
 (>= l_1_6_34 0.0))
(assert
 (>= l_1_6_35 0.0))
(assert
 (>= l_1_6_36 0.0))
(assert
 (>= l_1_6_37 0.0))
(assert
 (>= l_1_6_38 0.0))
(assert
 (>= l_1_6_39 0.0))
(assert
 (>= l_1_6_40 0.0))
(assert
 (>= l_1_6_41 0.0))
(assert
 (>= l_1_6_42 0.0))
(assert
 (>= l_1_6_43 0.0))
(assert
 (>= l_1_6_44 0.0))
(assert
 (>= l_1_6_45 0.0))
(assert
 (>= l_1_6_46 0.0))
(assert
 (>= l_1_6_47 0.0))
(assert
 (>= l_1_6_48 0.0))
(assert
 (>= l_1_6_49 0.0))
(assert
 (>= l_1_6_50 0.0))
(assert
 (>= l_1_6_51 0.0))
(assert
 (>= l_1_6_52 0.0))
(assert
 (>= l_1_6_53 0.0))
(assert
 (>= l_1_6_54 0.0))
(assert
 (>= l_1_6_55 0.0))
(assert
 (>= l_1_6_56 0.0))
(assert
 (>= l_1_6_57 0.0))
(assert
 (>= l_1_6_58 0.0))
(assert
 (>= l_1_6_59 0.0))
(assert
 (>= l_1_6_61 0.0))
(assert
 (>= l_1_6_64 0.0))
(assert
 (>= l_1_6_68 0.0))
(check-sat)
(get-model)